19075
1 0 1 0 0 1 0 0 0 0 0 1 0 0 1 0 0 1 0 0 1 0 0 0 1 0 0 0 0 0 
20 0 20 2 20 5 11 5 2 17 24 20 17 20 0 14 14 0 11 5 2 11 24 0 24 17 2 5 24 14 5 0 20 11 11 20 24 24 14 14 0 14 24 20 24 14 0 20 0 14 0 2 2 0 11 20 2 0 5 14 11 5 20 14 11 5 24 0 24 24 20 20 5 0 24 20 24 20 14 24 20 5 20 17 0 14 0 17 20 5 2 24 0 24 2 14 14 14 5 17 20 14 17 0 14 11 11 17 17 14 2 17 0 11 11 11 5 24 5 5 0 20 5 20 20 14 5 24 2 0 0 17 24 24 20 20 14 24 20 0 17 20 20 14 20 5 11 0 11 5 
